JulietBench/Juliet_Based_Patch_Bench/linux/CWE-189-Numeric-Errors/CVE_2011_0521_cb26a24ee9706473f31d34cc259f4dcf45cd0644/Resultdvb_ca_ioctl_Snippet_patch2EQ.smt2
; benchmark generated from python API
(set-info :status unknown)
(declare-fun R () (_ BitVec 32))
(declare-fun rdi () (_ BitVec 64))
(assert
 (let (($x56 (= (_ bv1 32) R)))
 (let ((?x6 ((_ extract 31 0) rdi)))
 (let (($x53 (= R ?x6)))
 (let (($x11 (bvsge (_ bv1 32) ?x6)))
 (let (($x54 (and $x11 $x53)))
 (let (($x44 (= (_ bv4294967274 32) R)))
 (let (($x40 (bvslt (_ bv1 32) ?x6)))
 (let (($x49 (and $x40 $x44)))
 (let (($x55 (or $x49 $x54)))
 (and $x55 $x56)))))))))))
(check-sat)
